A1.3-Solve_Nonograms/sat/arrow-2.sat
p cnf 277 1165
244 0
223 0
47 0
96 0
205 0
54 0
184 0
229 0
256 0
145 0
157 0
208 0
167 240 168 11 1 235 13 110 273 125 182 0
-167 230 0
-167 28 0
-167 137 0
-167 175 0
-167 153 0
-167 31 0
-167 144 0
-167 254 0
-167 236 0
-167 5 0
-167 48 0
-167 109 0
-240 27 0
-240 28 0
-240 207 0
-240 175 0
-240 153 0
-240 31 0
-240 144 0
-240 254 0
-240 236 0
-240 5 0
-240 48 0
-240 109 0
-168 27 0
-168 127 0
-168 207 0
-168 44 0
-168 153 0
-168 31 0
-168 144 0
-168 254 0
-168 236 0
-168 5 0
-168 48 0
-168 109 0
-11 27 0
-11 127 0
-11 137 0
-11 44 0
-11 26 0
-11 31 0
-11 144 0
-11 254 0
-11 236 0
-11 5 0
-11 48 0
-11 109 0
-1 27 0
-1 127 0
-1 137 0
-1 175 0
-1 26 0
-1 92 0
-1 144 0
-1 254 0
-1 236 0
-1 5 0
-1 48 0
-1 109 0
-235 27 0
-235 127 0
-235 137 0
-235 175 0
-235 153 0
-235 92 0
-235 2 0
-235 254 0
-235 236 0
-235 5 0
-235 48 0
-235 109 0
-13 27 0
-13 127 0
-13 137 0
-13 175 0
-13 153 0
-13 31 0
-13 2 0
-13 10 0
-13 236 0
-13 5 0
-13 48 0
-13 109 0
-110 27 0
-110 127 0
-110 137 0
-110 175 0
-110 153 0
-110 31 0
-110 144 0
-110 10 0
-110 37 0
-110 5 0
-110 48 0
-110 109 0
-273 27 0
-273 127 0
-273 137 0
-273 175 0
-273 153 0
-273 31 0
-273 144 0
-273 254 0
-273 37 0
-273 265 0
-273 48 0
-273 109 0
-125 27 0
-125 127 0
-125 137 0
-125 175 0
-125 153 0
-125 31 0
-125 144 0
-125 254 0
-125 236 0
-125 265 0
-125 195 0
-125 109 0
-182 27 0
-182 127 0
-182 137 0
-182 175 0
-182 153 0
-182 31 0
-182 144 0
-182 254 0
-182 236 0
-182 5 0
-182 195 0
-182 119 0
169 156 231 255 191 266 189 198 122 62 187 0
-169 209 0
-169 203 0
-169 259 0
-169 224 0
-169 63 0
-169 242 0
-169 4 0
-169 225 0
-169 76 0
-169 206 0
-169 226 0
-169 79 0
-156 220 0
-156 203 0
-156 111 0
-156 224 0
-156 63 0
-156 242 0
-156 4 0
-156 225 0
-156 76 0
-156 206 0
-156 226 0
-156 79 0
-231 220 0
-231 12 0
-231 111 0
-231 120 0
-231 63 0
-231 242 0
-231 4 0
-231 225 0
-231 76 0
-231 206 0
-231 226 0
-231 79 0
-255 220 0
-255 12 0
-255 259 0
-255 120 0
-255 159 0
-255 242 0
-255 4 0
-255 225 0
-255 76 0
-255 206 0
-255 226 0
-255 79 0
-191 220 0
-191 12 0
-191 259 0
-191 224 0
-191 159 0
-191 164 0
-191 4 0
-191 225 0
-191 76 0
-191 206 0
-191 226 0
-191 79 0
-266 220 0
-266 12 0
-266 259 0
-266 224 0
-266 63 0
-266 164 0
-266 219 0
-266 225 0
-266 76 0
-266 206 0
-266 226 0
-266 79 0
-189 220 0
-189 12 0
-189 259 0
-189 224 0
-189 63 0
-189 242 0
-189 219 0
-189 7 0
-189 76 0
-189 206 0
-189 226 0
-189 79 0
-198 220 0
-198 12 0
-198 259 0
-198 224 0
-198 63 0
-198 242 0
-198 4 0
-198 7 0
-198 188 0
-198 206 0
-198 226 0
-198 79 0
-122 220 0
-122 12 0
-122 259 0
-122 224 0
-122 63 0
-122 242 0
-122 4 0
-122 225 0
-122 188 0
-122 161 0
-122 226 0
-122 79 0
-62 220 0
-62 12 0
-62 259 0
-62 224 0
-62 63 0
-62 242 0
-62 4 0
-62 225 0
-62 76 0
-62 161 0
-62 118 0
-62 79 0
-187 220 0
-187 12 0
-187 259 0
-187 224 0
-187 63 0
-187 242 0
-187 4 0
-187 225 0
-187 76 0
-187 206 0
-187 118 0
-187 136 0
154 20 261 0
-154 14 0
-154 172 0
-154 19 0
-154 85 0
-154 213 0
-154 221 0
-154 163 0
-154 211 0
-154 272 0
-154 82 0
-154 124 0
-154 138 0
-20 108 0
-20 172 0
-20 19 0
-20 85 0
-20 213 0
-20 221 0
-20 163 0
-20 211 0
-20 272 0
-20 82 0
-20 86 0
-20 138 0
-261 108 0
-261 170 0
-261 19 0
-261 85 0
-261 213 0
-261 221 0
-261 163 0
-261 211 0
-261 272 0
-261 82 0
-261 86 0
-261 274 0
193 52 131 40 143 204 268 139 8 227 102 0
-193 22 0
-193 269 0
-193 57 0
-193 33 0
-193 276 0
-193 101 0
-193 180 0
-193 241 0
-193 146 0
-193 140 0
-193 46 0
-193 75 0
-52 15 0
-52 269 0
-52 178 0
-52 33 0
-52 276 0
-52 101 0
-52 180 0
-52 241 0
-52 146 0
-52 140 0
-52 46 0
-52 75 0
-131 15 0
-131 95 0
-131 178 0
-131 84 0
-131 276 0
-131 101 0
-131 180 0
-131 241 0
-131 146 0
-131 140 0
-131 46 0
-131 75 0
-40 15 0
-40 95 0
-40 57 0
-40 84 0
-40 112 0
-40 101 0
-40 180 0
-40 241 0
-40 146 0
-40 140 0
-40 46 0
-40 75 0
-143 15 0
-143 95 0
-143 57 0
-143 33 0
-143 112 0
-143 151 0
-143 180 0
-143 241 0
-143 146 0
-143 140 0
-143 46 0
-143 75 0
-204 15 0
-204 95 0
-204 57 0
-204 33 0
-204 276 0
-204 151 0
-204 232 0
-204 241 0
-204 146 0
-204 140 0
-204 46 0
-204 75 0
-268 15 0
-268 95 0
-268 57 0
-268 33 0
-268 276 0
-268 101 0
-268 232 0
-268 61 0
-268 146 0
-268 140 0
-268 46 0
-268 75 0
-139 15 0
-139 95 0
-139 57 0
-139 33 0
-139 276 0
-139 101 0
-139 180 0
-139 61 0
-139 176 0
-139 140 0
-139 46 0
-139 75 0
-8 15 0
-8 95 0
-8 57 0
-8 33 0
-8 276 0
-8 101 0
-8 180 0
-8 241 0
-8 176 0
-8 233 0
-8 46 0
-8 75 0
-227 15 0
-227 95 0
-227 57 0
-227 33 0
-227 276 0
-227 101 0
-227 180 0
-227 241 0
-227 146 0
-227 233 0
-227 257 0
-227 75 0
-102 15 0
-102 95 0
-102 57 0
-102 33 0
-102 276 0
-102 101 0
-102 180 0
-102 241 0
-102 146 0
-102 140 0
-102 257 0
-102 196 0
104 165 129 50 181 72 65 199 32 228 171 0
-104 234 0
-104 260 0
-104 78 0
-104 98 0
-104 133 0
-104 214 0
-104 128 0
-104 201 0
-104 71 0
-104 249 0
-104 36 0
-104 100 0
-165 21 0
-165 260 0
-165 197 0
-165 98 0
-165 133 0
-165 214 0
-165 128 0
-165 201 0
-165 71 0
-165 249 0
-165 36 0
-165 100 0
-129 21 0
-129 64 0
-129 197 0
-129 243 0
-129 133 0
-129 214 0
-129 128 0
-129 201 0
-129 71 0
-129 249 0
-129 36 0
-129 100 0
-50 21 0
-50 64 0
-50 78 0
-50 243 0
-50 264 0
-50 214 0
-50 128 0
-50 201 0
-50 71 0
-50 249 0
-50 36 0
-50 100 0
-181 21 0
-181 64 0
-181 78 0
-181 98 0
-181 264 0
-181 271 0
-181 128 0
-181 201 0
-181 71 0
-181 249 0
-181 36 0
-181 100 0
-72 21 0
-72 64 0
-72 78 0
-72 98 0
-72 133 0
-72 271 0
-72 70 0
-72 201 0
-72 71 0
-72 249 0
-72 36 0
-72 100 0
-65 21 0
-65 64 0
-65 78 0
-65 98 0
-65 133 0
-65 214 0
-65 70 0
-65 35 0
-65 71 0
-65 249 0
-65 36 0
-65 100 0
-199 21 0
-199 64 0
-199 78 0
-199 98 0
-199 133 0
-199 214 0
-199 128 0
-199 35 0
-199 34 0
-199 249 0
-199 36 0
-199 100 0
-32 21 0
-32 64 0
-32 78 0
-32 98 0
-32 133 0
-32 214 0
-32 128 0
-32 201 0
-32 34 0
-32 18 0
-32 36 0
-32 100 0
-228 21 0
-228 64 0
-228 78 0
-228 98 0
-228 133 0
-228 214 0
-228 128 0
-228 201 0
-228 71 0
-228 18 0
-228 121 0
-228 100 0
-171 21 0
-171 64 0
-171 78 0
-171 98 0
-171 133 0
-171 214 0
-171 128 0
-171 201 0
-171 71 0
-171 249 0
-171 121 0
-171 141 0
262 0
87 0
238 0
192 0
252 0
38 0
39 0
247 0
103 0
275 0
216 0
83 0
244 0
27 0
220 0
108 0
15 0
21 0
262 0
88 105 270 89 94 60 258 0
-88 113 0
-88 127 0
-88 12 0
-88 170 0
-88 95 0
-88 64 0
-88 87 0
-105 223 0
-105 28 0
-105 12 0
-105 170 0
-105 95 0
-105 64 0
-105 87 0
-270 223 0
-270 127 0
-270 203 0
-270 170 0
-270 95 0
-270 64 0
-270 87 0
-89 223 0
-89 127 0
-89 12 0
-89 172 0
-89 95 0
-89 64 0
-89 87 0
-94 223 0
-94 127 0
-94 12 0
-94 170 0
-94 269 0
-94 64 0
-94 87 0
-60 223 0
-60 127 0
-60 12 0
-60 170 0
-60 95 0
-60 260 0
-60 87 0
-258 223 0
-258 127 0
-258 12 0
-258 170 0
-258 95 0
-258 64 0
-258 186 0
248 45 173 179 185 29 150 0
-248 147 0
-248 137 0
-248 259 0
-248 237 0
-248 57 0
-248 78 0
-248 238 0
-45 47 0
-45 207 0
-45 259 0
-45 237 0
-45 57 0
-45 78 0
-45 238 0
-173 47 0
-173 137 0
-173 111 0
-173 237 0
-173 57 0
-173 78 0
-173 238 0
-179 47 0
-179 137 0
-179 259 0
-179 19 0
-179 57 0
-179 78 0
-179 238 0
-185 47 0
-185 137 0
-185 259 0
-185 237 0
-185 178 0
-185 78 0
-185 238 0
-29 47 0
-29 137 0
-29 259 0
-29 237 0
-29 57 0
-29 197 0
-29 238 0
-150 47 0
-150 137 0
-150 259 0
-150 237 0
-150 57 0
-150 78 0
-150 134 0
115 114 116 126 107 77 123 0
-115 217 0
-115 175 0
-115 224 0
-115 200 0
-115 33 0
-115 98 0
-115 192 0
-114 96 0
-114 44 0
-114 224 0
-114 200 0
-114 33 0
-114 98 0
-114 192 0
-116 96 0
-116 175 0
-116 120 0
-116 200 0
-116 33 0
-116 98 0
-116 192 0
-126 96 0
-126 175 0
-126 224 0
-126 85 0
-126 33 0
-126 98 0
-126 192 0
-107 96 0
-107 175 0
-107 224 0
-107 200 0
-107 84 0
-107 98 0
-107 192 0
-77 96 0
-77 175 0
-77 224 0
-77 200 0
-77 33 0
-77 243 0
-77 192 0
-123 96 0
-123 175 0
-123 224 0
-123 200 0
-123 33 0
-123 98 0
-123 160 0
251 16 73 66 56 58 106 0
-251 74 0
-251 153 0
-251 63 0
-251 42 0
-251 276 0
-251 133 0
-251 252 0
-16 205 0
-16 26 0
-16 63 0
-16 42 0
-16 276 0
-16 133 0
-16 252 0
-73 205 0
-73 153 0
-73 159 0
-73 42 0
-73 276 0
-73 133 0
-73 252 0
-66 205 0
-66 153 0
-66 63 0
-66 213 0
-66 276 0
-66 133 0
-66 252 0
-56 205 0
-56 153 0
-56 63 0
-56 42 0
-56 112 0
-56 133 0
-56 252 0
-58 205 0
-58 153 0
-58 63 0
-58 42 0
-58 276 0
-58 264 0
-58 252 0
-106 205 0
-106 153 0
-106 63 0
-106 42 0
-106 276 0
-106 133 0
-106 263 0
80 25 250 148 222 218 117 0
-80 93 0
-80 31 0
-80 242 0
-80 210 0
-80 101 0
-80 214 0
-80 38 0
-25 54 0
-25 92 0
-25 242 0
-25 210 0
-25 101 0
-25 214 0
-25 38 0
-250 54 0
-250 31 0
-250 164 0
-250 210 0
-250 101 0
-250 214 0
-250 38 0
-148 54 0
-148 31 0
-148 242 0
-148 221 0
-148 101 0
-148 214 0
-148 38 0
-222 54 0
-222 31 0
-222 242 0
-222 210 0
-222 151 0
-222 214 0
-222 38 0
-218 54 0
-218 31 0
-218 242 0
-218 210 0
-218 101 0
-218 271 0
-218 38 0
-117 54 0
-117 31 0
-117 242 0
-117 210 0
-117 101 0
-117 214 0
-117 162 0
135 194 130 152 142 23 41 0
-135 190 0
-135 144 0
-135 4 0
-135 277 0
-135 180 0
-135 128 0
-135 39 0
-194 184 0
-194 2 0
-194 4 0
-194 277 0
-194 180 0
-194 128 0
-194 39 0
-130 184 0
-130 144 0
-130 219 0
-130 277 0
-130 180 0
-130 128 0
-130 39 0
-152 184 0
-152 144 0
-152 4 0
-152 163 0
-152 180 0
-152 128 0
-152 39 0
-142 184 0
-142 144 0
-142 4 0
-142 277 0
-142 232 0
-142 128 0
-142 39 0
-23 184 0
-23 144 0
-23 4 0
-23 277 0
-23 180 0
-23 70 0
-23 39 0
-41 184 0
-41 144 0
-41 4 0
-41 277 0
-41 180 0
-41 128 0
-41 149 0
166 67 68 90 6 3 69 24 215 55 0
-166 158 0
-166 254 0
-166 7 0
-166 53 0
-166 61 0
-166 201 0
-166 247 0
-67 158 0
-67 254 0
-67 7 0
-67 53 0
-67 241 0
-67 35 0
-67 247 0
-68 158 0
-68 254 0
-68 7 0
-68 53 0
-68 241 0
-68 201 0
-68 267 0
-90 158 0
-90 254 0
-90 225 0
-90 211 0
-90 241 0
-90 35 0
-90 247 0
-6 158 0
-6 254 0
-6 225 0
-6 211 0
-6 241 0
-6 201 0
-6 267 0
-3 158 0
-3 254 0
-3 225 0
-3 53 0
-3 61 0
-3 201 0
-3 267 0
-69 229 0
-69 10 0
-69 225 0
-69 211 0
-69 241 0
-69 35 0
-69 247 0
-24 229 0
-24 10 0
-24 225 0
-24 211 0
-24 241 0
-24 201 0
-24 267 0
-215 229 0
-215 10 0
-215 225 0
-215 53 0
-215 61 0
-215 201 0
-215 267 0
-55 229 0
-55 254 0
-55 7 0
-55 53 0
-55 61 0
-55 201 0
-55 267 0
17 81 239 0
-17 51 0
-17 37 0
-17 188 0
-17 272 0
-17 176 0
-17 71 0
-17 103 0
-81 256 0
-81 37 0
-81 188 0
-81 272 0
-81 176 0
-81 34 0
-81 103 0
-239 256 0
-239 236 0
-239 188 0
-239 272 0
-239 176 0
-239 34 0
-239 30 0
43 91 177 59 155 0
-43 253 0
-43 265 0
-43 161 0
-43 49 0
-43 140 0
-43 249 0
-43 275 0
-91 145 0
-91 265 0
-91 161 0
-91 82 0
-91 140 0
-91 249 0
-91 275 0
-177 145 0
-177 5 0
-177 161 0
-177 82 0
-177 233 0
-177 249 0
-177 275 0
-59 145 0
-59 5 0
-59 206 0
-59 82 0
-59 233 0
-59 18 0
-59 275 0
-155 145 0
-155 5 0
-155 206 0
-155 49 0
-155 233 0
-155 18 0
-155 212 0
174 202 132 97 99 245 9 0
-174 246 0
-174 48 0
-174 226 0
-174 124 0
-174 46 0
-174 36 0
-174 216 0
-202 157 0
-202 195 0
-202 226 0
-202 124 0
-202 46 0
-202 36 0
-202 216 0
-132 157 0
-132 48 0
-132 118 0
-132 124 0
-132 46 0
-132 36 0
-132 216 0
-97 157 0
-97 48 0
-97 226 0
-97 86 0
-97 46 0
-97 36 0
-97 216 0
-99 157 0
-99 48 0
-99 226 0
-99 124 0
-99 257 0
-99 36 0
-99 216 0
-245 157 0
-245 48 0
-245 226 0
-245 124 0
-245 46 0
-245 121 0
-245 216 0
-9 157 0
-9 48 0
-9 226 0
-9 124 0
-9 46 0
-9 36 0
-9 183 0
208 0
109 0
79 0
138 0
75 0
100 0
83 0
-223 -113 0
-47 -147 0
-96 -217 0
-205 -74 0
-54 -93 0
-184 -190 0
-229 -158 0
-256 -51 0
-145 -253 0
-157 -246 0
-27 -230 0
-127 -28 0
-137 -207 0
-175 -44 0
-153 -26 0
-31 -92 0
-144 -2 0
-254 -10 0
-236 -37 0
-5 -265 0
-48 -195 0
-109 -119 0
-220 -209 0
-12 -203 0
-259 -111 0
-224 -120 0
-63 -159 0
-242 -164 0
-4 -219 0
-225 -7 0
-76 -188 0
-206 -161 0
-226 -118 0
-79 -136 0
-108 -14 0
-170 -172 0
-237 -19 0
-200 -85 0
-42 -213 0
-210 -221 0
-277 -163 0
-53 -211 0
-49 -82 0
-124 -86 0
-138 -274 0
-15 -22 0
-95 -269 0
-57 -178 0
-33 -84 0
-276 -112 0
-101 -151 0
-180 -232 0
-241 -61 0
-146 -176 0
-140 -233 0
-46 -257 0
-75 -196 0
-21 -234 0
-64 -260 0
-78 -197 0
-98 -243 0
-133 -264 0
-214 -271 0
-128 -70 0
-201 -35 0
-71 -34 0
-249 -18 0
-36 -121 0
-100 -141 0
-87 -186 0
-238 -134 0
-192 -160 0
-252 -263 0
-38 -162 0
-39 -149 0
-247 -267 0
-103 -30 0
-275 -212 0
-216 -183 0
