A1.3-Solve_Nonograms/solution/arrow-2.solution
------------
-------aa---
--------aa--
-aaaaaaaaaa-
--------aa--
-------aa---
------------
